Ca4 Ti4 O12                             
   1.00000000000000     
     5.4093409430130563   -0.0000000000000000    0.0000000000000003
    -0.0000000000000003    5.5166438126899235    0.0000000000000003
     0.0000000000000000    0.0000000000000000    7.7003531406982919
   Ca   Ti   O 
     4     4    12
Direct
  0.5096027186049771  0.5446856691531764  0.7500000000000000
  0.4903972813950231  0.4553143308468234  0.2500000000000000
  0.9903972813950229  0.0446856691531765  0.7500000000000000
  0.0096027186049769  0.9553143308468236  0.2500000000000000
  0.0000000000000000  0.5000000000000000  0.5000000000000000
  0.0000000000000000  0.5000000000000000 -0.0000000000000000
  0.5000000000000000  0.0000000000000000  0.5000000000000000
  0.5000000000000000  0.0000000000000000 -0.0000000000000000
  0.0796410859878119  0.4796662273903073  0.7500000000000000
  0.9203589140121879  0.5203337726096927  0.2500000000000000
  0.4203589140121882  0.9796662273903073  0.7500000000000000
  0.5796410859878121  0.0203337726096927  0.2500000000000000
  0.7915415025165381  0.7907454237833001  0.9581648921489132
  0.2084584974834617  0.2092545762166924  0.4581648921489133
  0.2084584974834617  0.2092545762166924  0.0418351078510867
  0.7915415025165381  0.7907454237833001  0.5418351078510868
  0.7084584974834619  0.2907454237833005  0.9581648921489132
  0.2915415025165383  0.7092545762166927  0.4581648921489133
  0.2915415025165383  0.7092545762166927  0.0418351078510867
  0.7084584974834619  0.2907454237833005  0.5418351078510868
 
  0.00000000E+00  0.00000000E+00  0.00000000E+00
  0.00000000E+00  0.00000000E+00  0.00000000E+00
  0.00000000E+00  0.00000000E+00  0.00000000E+00
  0.00000000E+00  0.00000000E+00  0.00000000E+00
  0.00000000E+00  0.00000000E+00  0.00000000E+00
  0.00000000E+00  0.00000000E+00  0.00000000E+00
  0.00000000E+00  0.00000000E+00  0.00000000E+00
  0.00000000E+00  0.00000000E+00  0.00000000E+00
  0.00000000E+00  0.00000000E+00  0.00000000E+00
  0.00000000E+00  0.00000000E+00  0.00000000E+00
  0.00000000E+00  0.00000000E+00  0.00000000E+00
  0.00000000E+00  0.00000000E+00  0.00000000E+00
  0.00000000E+00  0.00000000E+00  0.00000000E+00
  0.00000000E+00  0.00000000E+00  0.00000000E+00
  0.00000000E+00  0.00000000E+00  0.00000000E+00
  0.00000000E+00  0.00000000E+00  0.00000000E+00
  0.00000000E+00  0.00000000E+00  0.00000000E+00
  0.00000000E+00  0.00000000E+00  0.00000000E+00
  0.00000000E+00  0.00000000E+00  0.00000000E+00
  0.00000000E+00  0.00000000E+00  0.00000000E+00
