pymatgen with grid density = 805 / number of atoms
0
Gamma
4 4 1
