Ca6 Ti8 O22
1.0
   5.4098260893515198    0.0000000000000000    0.0000000000000003
  -0.0000000000000003    5.5167059241281757    0.0000000000000003
   0.0000000000000000    0.0000000000000000   26.1954899999999995
Ca Ti O
6 8 22
direct
   0.5095964104711976    0.5446712302292928    0.1775832093991293 Ca
   0.9904035895288024    0.0446712302292926    0.1775832093991293 Ca
   0.5095964104711976    0.5446712302292928    0.4715556992996879 Ca
   0.4904035895288024    0.4553287697707075    0.3245694543494086 Ca
   0.9904035895288024    0.0446712302292926    0.4715556992996879 Ca
   0.0095964104711976    0.9553287697707074    0.3245694543494086 Ca
  -0.0000000000000000    0.5000000000000000    0.1040900869239896 Ti
  -0.0000000000000000    0.5000000000000000    0.2510763318742689 Ti
   0.5000000000000000    0.0000000000000000    0.1040900869239896 Ti
   0.5000000000000000    0.0000000000000000    0.2510763318742689 Ti
  -0.0000000000000000    0.5000000000000000    0.3980625768245483 Ti
  -0.0000000000000000    0.5000000000000000    0.5450488217748276 Ti
   0.5000000000000000    0.0000000000000000    0.3980625768245483 Ti
   0.5000000000000000    0.0000000000000000    0.5450488217748276 Ti
   0.0796361489488385    0.4796982179081420    0.1775832093991293 O
   0.4203638510511615    0.9796982179081420    0.1775832093991293 O
   0.7915017555679251    0.7907105816721134    0.2387771382968292 O
   0.2084982444320749    0.2092894183278795    0.0917908933465499 O
   0.2084982444320749    0.2092894183278795    0.2633755254517087 O
   0.7915017555679251    0.7907105816721134    0.1163892805014293 O
   0.7084982444320749    0.2907105816721134    0.2387771382968292 O
   0.2915017555679251    0.7092894183278796    0.0917908933465499 O
   0.2915017555679251    0.7092894183278796    0.2633755254517087 O
   0.7084982444320749    0.2907105816721134    0.1163892805014293 O
   0.0796361489488385    0.4796982179081420    0.4715556992996879 O
   0.9203638510511615    0.5203017820918580    0.3245694543494086 O
   0.4203638510511615    0.9796982179081420    0.4715556992996879 O
   0.5796361489488385    0.0203017820918580    0.3245694543494086 O
   0.7915017555679251    0.7907105816721134    0.5327496281973878 O
   0.2084982444320749    0.2092894183278795    0.3857633832471085 O
   0.2084982444320749    0.2092894183278795    0.5573480153522673 O
   0.7915017555679251    0.7907105816721134    0.4103617704019880 O
   0.7084982444320749    0.2907105816721134    0.5327496281973878 O
   0.2915017555679251    0.7092894183278796    0.3857633832471085 O
   0.2915017555679251    0.7092894183278796    0.5573480153522673 O
   0.7084982444320749    0.2907105816721134    0.4103617704019880 O
