pymatgen with grid density = 695 / number of atoms
0
Gamma
4 4 1
