Ca8 Ti6 O24
1.0
   5.4098260893515198    0.0000000000000000    0.0000000000000003
  -0.0000000000000003    5.5167059241281757    0.0000000000000003
   0.0000000000000000    0.0000000000000000   29.1022602583955532
Ca Ti O
8 6 24
direct
   0.5095964104711976    0.5446712302292928    0.1929222443056208 Ca
   0.4904035895288024    0.4553287697707075    0.0606171698699739 Ca
   0.9904035895288024    0.0446712302292926    0.1929222443056208 Ca
   0.0095964104711976    0.9553287697707074    0.0606171698699739 Ca
   0.5095964104711976    0.5446712302292928    0.4575323931769146 Ca
   0.4904035895288024    0.4553287697707075    0.3252273187412676 Ca
   0.9904035895288024    0.0446712302292926    0.4575323931769146 Ca
   0.0095964104711976    0.9553287697707074    0.3252273187412676 Ca
  -0.0000000000000000    0.5000000000000000    0.1267697070877973 Ti
  -0.0000000000000000    0.5000000000000000    0.2590747815234443 Ti
   0.5000000000000000    0.0000000000000000    0.1267697070877973 Ti
   0.5000000000000000    0.0000000000000000    0.2590747815234443 Ti
  -0.0000000000000000    0.5000000000000000    0.3913798559590910 Ti
   0.5000000000000000    0.0000000000000000    0.3913798559590910 Ti
   0.0796361489488385    0.4796982179081420    0.1929222443056208 O
   0.9203638510511615    0.5203017820918580    0.0606171698699739 O
   0.4203638510511615    0.9796982179081420    0.1929222443056207 O
   0.5796361489488385    0.0203017820918580    0.0606171698699739 O
   0.7915017555679251    0.7907105816721134    0.2480040468277450 O
   0.2084982444320749    0.2092894183278795    0.1156989723920981 O
   0.2084982444320749    0.2092894183278795    0.0055353673478496 O
   0.7915017555679251    0.7907105816721134    0.1378404417834965 O
   0.7084982444320749    0.2907105816721134    0.2480040468277451 O
   0.2915017555679251    0.7092894183278796    0.1156989723920981 O
   0.2915017555679251    0.7092894183278796    0.0055353673478496 O
   0.7084982444320749    0.2907105816721134    0.1378404417834965 O
   0.0796361489488385    0.4796982179081420    0.4575323931769146 O
   0.9203638510511615    0.5203017820918580    0.3252273187412676 O
   0.4203638510511615    0.9796982179081420    0.4575323931769146 O
   0.5796361489488385    0.0203017820918580    0.3252273187412676 O
   0.7915017555679251    0.7907105816721134    0.5126141956990389 O
   0.2084982444320749    0.2092894183278795    0.3803091212633919 O
   0.2084982444320749    0.2092894183278795    0.2701455162191434 O
   0.7915017555679251    0.7907105816721134    0.4024505906547903 O
   0.7084982444320749    0.2907105816721134    0.5126141956990389 O
   0.2915017555679251    0.7092894183278796    0.3803091212633919 O
   0.2915017555679251    0.7092894183278796    0.2701455162191434 O
   0.7084982444320749    0.2907105816721134    0.4024505906547902 O
