pymatgen with grid density = 611 / number of atoms
0
Gamma
4 4 1
