pymatgen with grid density = 678 / number of atoms
0
Gamma
4 4 1
