Ca6 Ti8 O18
1.0
   5.4098260893515198    0.0000000000000000    0.0000000000000003
  -0.0000000000000003    5.5167059241281757    0.0000000000000003
   0.0000000000000000    0.0000000000000000   25.1022602583955532
Ca Ti O
6 8 18
direct
   0.5095964104711976    0.5446712302292928    0.2236640567670858 Ca
   0.9904035895288024    0.0446712302292926    0.2236640567670858 Ca
   0.5095964104711976    0.5446712302292928    0.5304393566881213 Ca
   0.4904035895288024    0.4553287697707075    0.3770517067276035 Ca
   0.9904035895288024    0.0446712302292926    0.5304393566881213 Ca
   0.0095964104711976    0.9553287697707074    0.3770517067276035 Ca
  -0.0000000000000000    0.5000000000000000    0.1469702317868269 Ti
  -0.0000000000000000    0.5000000000000000    0.3003578817473447 Ti
   0.5000000000000000    0.0000000000000000    0.1469702317868269 Ti
   0.5000000000000000    0.0000000000000000    0.3003578817473447 Ti
  -0.0000000000000000    0.5000000000000000    0.4537455317078623 Ti
  -0.0000000000000000    0.5000000000000000    0.6071331816683802 Ti
   0.5000000000000000    0.0000000000000000    0.4537455317078623 Ti
   0.5000000000000000    0.0000000000000000    0.6071331816683802 Ti
   0.0796361489488385    0.4796982179081420    0.2236640567670858 O
   0.4203638510511615    0.9796982179081420    0.2236640567670858 O
   0.7915017555679251    0.7907105816721134    0.2875230453999631 O
   0.7915017555679251    0.7907105816721134    0.1598050681342085 O
   0.7084982444320749    0.2907105816721134    0.2875230453999632 O
   0.7084982444320749    0.2907105816721134    0.1598050681342085 O
   0.0796361489488385    0.4796982179081420    0.5304393566881213 O
   0.9203638510511615    0.5203017820918580    0.3770517067276035 O
   0.4203638510511615    0.9796982179081420    0.5304393566881213 O
   0.5796361489488385    0.0203017820918580    0.3770517067276035 O
   0.7915017555679251    0.7907105816721134    0.5942983453209986 O
   0.2084982444320749    0.2092894183278795    0.4409106953604808 O
   0.2084982444320749    0.2092894183278795    0.3131927180947262 O
   0.7915017555679251    0.7907105816721134    0.4665803680552439 O
   0.7084982444320749    0.2907105816721134    0.5942983453209986 O
   0.2915017555679251    0.7092894183278796    0.4409106953604808 O
   0.2915017555679251    0.7092894183278796    0.3131927180947262 O
   0.7084982444320749    0.2907105816721134    0.4665803680552439 O
