pymatgen with grid density = 634 / number of atoms
0
Gamma
4 4 1
