Ca6 Ti8 O22
1.0
   5.4098260893515198    0.0000000000000000    0.0000000000000003
  -0.0000000000000003    5.5167059241281757    0.0000000000000003
   0.0000000000000000    0.0000000000000000   30.1954899999999995
Ca Ti O
6 8 22
direct
   0.5095964104711976    0.5446712302292928    0.1540587414207485 Ca
   0.9904035895288024    0.0446712302292926    0.1540587414207485 Ca
   0.5095964104711976    0.5446712302292928    0.4090886620964913 Ca
   0.4904035895288024    0.4553287697707075    0.2815737017586199 Ca
   0.9904035895288024    0.0446712302292926    0.4090886620964913 Ca
   0.0095964104711976    0.9553287697707074    0.2815737017586199 Ca
  -0.0000000000000000    0.5000000000000000    0.0903012612518128 Ti
  -0.0000000000000000    0.5000000000000000    0.2178162215896842 Ti
   0.5000000000000000    0.0000000000000000    0.0903012612518128 Ti
   0.5000000000000000    0.0000000000000000    0.2178162215896842 Ti
  -0.0000000000000000    0.5000000000000000    0.3453311819275555 Ti
  -0.0000000000000000    0.5000000000000000    0.4728461422654269 Ti
   0.5000000000000000    0.0000000000000000    0.3453311819275555 Ti
   0.5000000000000000    0.0000000000000000    0.4728461422654269 Ti
   0.0796361489488385    0.4796982179081420    0.1540587414207485 O
   0.4203638510511615    0.9796982179081420    0.1540587414207485 O
   0.7915017555679251    0.7907105816721134    0.2071463035865027 O
   0.2084982444320749    0.2092894183278795    0.0796313432486313 O
   0.2084982444320749    0.2092894183278795    0.2284861395928657 O
   0.7915017555679251    0.7907105816721134    0.1009711792549943 O
   0.7084982444320749    0.2907105816721134    0.2071463035865027 O
   0.2915017555679251    0.7092894183278796    0.0796313432486313 O
   0.2915017555679251    0.7092894183278796    0.2284861395928657 O
   0.7084982444320749    0.2907105816721134    0.1009711792549943 O
   0.0796361489488385    0.4796982179081420    0.4090886620964913 O
   0.9203638510511615    0.5203017820918580    0.2815737017586198 O
   0.4203638510511615    0.9796982179081420    0.4090886620964912 O
   0.5796361489488385    0.0203017820918580    0.2815737017586199 O
   0.7915017555679251    0.7907105816721134    0.4621762242622454 O
   0.2084982444320749    0.2092894183278795    0.3346612639243740 O
   0.2084982444320749    0.2092894183278795    0.4835160602686084 O
   0.7915017555679251    0.7907105816721134    0.3560010999307370 O
   0.7084982444320749    0.2907105816721134    0.4621762242622454 O
   0.2915017555679251    0.7092894183278796    0.3346612639243740 O
   0.2915017555679251    0.7092894183278796    0.4835160602686084 O
   0.7084982444320749    0.2907105816721134    0.3560010999307370 O
