Ca6 Ti8 O22
1.0
   5.4098260893515198    0.0000000000000000    0.0000000000000003
  -0.0000000000000003    5.5167059241281757    0.0000000000000003
   0.0000000000000000    0.0000000000000000   22.1954899999999995
Ca Ti O
6 8 22
direct
   0.5095964104711976    0.5446712302292928    0.2095866856727559 Ca
   0.9904035895288024    0.0446712302292926    0.2095866856727559 Ca
   0.5095964104711976    0.5446712302292928    0.5565379545776183 Ca
   0.4904035895288024    0.4553287697707075    0.3830623201251872 Ca
   0.9904035895288024    0.0446712302292926    0.5565379545776183 Ca
   0.0095964104711976    0.9553287697707074    0.3830623201251872 Ca
  -0.0000000000000000    0.5000000000000000    0.1228488684465403 Ti
  -0.0000000000000000    0.5000000000000000    0.2963245028989716 Ti
   0.5000000000000000    0.0000000000000000    0.1228488684465403 Ti
   0.5000000000000000    0.0000000000000000    0.2963245028989716 Ti
  -0.0000000000000000    0.5000000000000000    0.4698001373514027 Ti
  -0.0000000000000000    0.5000000000000000    0.6432757718038340 Ti
   0.5000000000000000    0.0000000000000000    0.4698001373514027 Ti
   0.5000000000000000    0.0000000000000000    0.6432757718038340 Ti
   0.0796361489488385    0.4796982179081420    0.2095866856727559 O
   0.4203638510511615    0.9796982179081420    0.2095866856727559 O
   0.7915017555679251    0.7907105816721134    0.2818087881134053 O
   0.2084982444320749    0.2092894183278795    0.1083331536609741 O
   0.2084982444320749    0.2092894183278795    0.3108402176845377 O
   0.7915017555679251    0.7907105816721134    0.1373645832321065 O
   0.7084982444320749    0.2907105816721134    0.2818087881134053 O
   0.2915017555679251    0.7092894183278796    0.1083331536609741 O
   0.2915017555679251    0.7092894183278796    0.3108402176845377 O
   0.7084982444320749    0.2907105816721134    0.1373645832321065 O
   0.0796361489488385    0.4796982179081420    0.5565379545776183 O
   0.9203638510511615    0.5203017820918580    0.3830623201251872 O
   0.4203638510511615    0.9796982179081420    0.5565379545776182 O
   0.5796361489488385    0.0203017820918580    0.3830623201251872 O
   0.7915017555679251    0.7907105816721134    0.6287600570182676 O
   0.2084982444320749    0.2092894183278795    0.4552844225658365 O
   0.2084982444320749    0.2092894183278795    0.6577914865894001 O
   0.7915017555679251    0.7907105816721134    0.4843158521369689 O
   0.7084982444320749    0.2907105816721134    0.6287600570182676 O
   0.2915017555679251    0.7092894183278796    0.4552844225658365 O
   0.2915017555679251    0.7092894183278796    0.6577914865894001 O
   0.7084982444320749    0.2907105816721134    0.4843158521369689 O
