pymatgen with grid density = 515 / number of atoms
0
Gamma
4 4 1
