Ca8 Ti6 O20
1.0
   5.4098260893515198    0.0000000000000000    0.0000000000000003
  -0.0000000000000003    5.5167059241281757    0.0000000000000003
   0.0000000000000000    0.0000000000000000   35.1022602583955532
Ca Ti O
8 6 20
direct
   0.5095964104711976    0.5446712302292928    0.1325236367042828 Ca
   0.4904035895288024    0.4553287697707075    0.0228333580330773 Ca
   0.9904035895288024    0.0446712302292926    0.1325236367042828 Ca
   0.0095964104711976    0.9553287697707074    0.0228333580330773 Ca
   0.5095964104711976    0.5446712302292928    0.3519041940466939 Ca
   0.4904035895288024    0.4553287697707075    0.2422139153754884 Ca
   0.9904035895288024    0.0446712302292926    0.3519041940466939 Ca
   0.0095964104711976    0.9553287697707074    0.2422139153754884 Ca
  -0.0000000000000000    0.5000000000000000    0.0776784973686800 Ti
  -0.0000000000000000    0.5000000000000000    0.1873687760398856 Ti
   0.5000000000000000    0.0000000000000000    0.0776784973686800 Ti
   0.5000000000000000    0.0000000000000000    0.1873687760398856 Ti
  -0.0000000000000000    0.5000000000000000    0.2970590547110911 Ti
   0.5000000000000000    0.0000000000000000    0.2970590547110911 Ti
   0.0796361489488385    0.4796982179081420    0.1325236367042828 O
   0.9203638510511615    0.5203017820918580    0.0228333580330773 O
   0.4203638510511615    0.9796982179081420    0.1325236367042828 O
   0.5796361489488385    0.0203017820918580    0.0228333580330773 O
   0.7915017555679251    0.7907105816721134    0.1781903527704373 O
   0.2084982444320749    0.2092894183278795    0.0685000740992318 O
   0.2084982444320749    0.2092894183278795    0.1965471993093338 O
   0.7915017555679251    0.7907105816721134    0.0868569206381283 O
   0.7084982444320749    0.2907105816721134    0.1781903527704373 O
   0.2915017555679251    0.7092894183278796    0.0685000740992318 O
   0.2915017555679251    0.7092894183278796    0.1965471993093338 O
   0.7084982444320749    0.2907105816721134    0.0868569206381283 O
   0.0796361489488385    0.4796982179081420    0.3519041940466939 O
   0.9203638510511615    0.5203017820918580    0.2422139153754884 O
   0.4203638510511615    0.9796982179081420    0.3519041940466939 O
   0.5796361489488385    0.0203017820918580    0.2422139153754884 O
   0.2084982444320749    0.2092894183278795    0.2878806314416429 O
   0.7915017555679251    0.7907105816721134    0.3062374779805394 O
   0.2915017555679251    0.7092894183278796    0.2878806314416429 O
   0.7084982444320749    0.2907105816721134    0.3062374779805394 O
