Ca8 Ti6 O20
1.0
   5.4098260893515198    0.0000000000000000    0.0000000000000003
  -0.0000000000000003    5.5167059241281757    0.0000000000000003
   0.0000000000000000    0.0000000000000000   33.1022602583955532
Ca Ti O
8 6 20
direct
   0.5095964104711976    0.5446712302292928    0.1405305604412002 Ca
   0.4904035895288024    0.4553287697707075    0.0242129229241053 Ca
   0.9904035895288024    0.0446712302292926    0.1405305604412002 Ca
   0.0095964104711976    0.9553287697707074    0.0242129229241053 Ca
   0.5095964104711976    0.5446712302292928    0.3731658354753902 Ca
   0.4904035895288024    0.4553287697707075    0.2568481979582952 Ca
   0.9904035895288024    0.0446712302292926    0.3731658354753902 Ca
   0.0095964104711976    0.9553287697707074    0.2568481979582952 Ca
  -0.0000000000000000    0.5000000000000000    0.0823717416826528 Ti
  -0.0000000000000000    0.5000000000000000    0.1986893791997477 Ti
   0.5000000000000000    0.0000000000000000    0.0823717416826528 Ti
   0.5000000000000000    0.0000000000000000    0.1986893791997477 Ti
  -0.0000000000000000    0.5000000000000000    0.3150070167168427 Ti
   0.5000000000000000    0.0000000000000000    0.3150070167168427 Ti
   0.0796361489488385    0.4796982179081420    0.1405305604412002 O
   0.9203638510511615    0.5203017820918580    0.0242129229241053 O
   0.4203638510511615    0.9796982179081420    0.1405305604412002 O
   0.5796361489488385    0.0203017820918580    0.0242129229241053 O
   0.7915017555679251    0.7907105816721134    0.1889564062894108 O
   0.2084982444320749    0.2092894183278795    0.0726387687723158 O
   0.2084982444320749    0.2092894183278795    0.2084223521100846 O
   0.7915017555679251    0.7907105816721134    0.0921047145929897 O
   0.7084982444320749    0.2907105816721134    0.1889564062894108 O
   0.2915017555679251    0.7092894183278796    0.0726387687723158 O
   0.2915017555679251    0.7092894183278796    0.2084223521100846 O
   0.7084982444320749    0.2907105816721134    0.0921047145929897 O
   0.0796361489488385    0.4796982179081420    0.3731658354753902 O
   0.9203638510511615    0.5203017820918580    0.2568481979582952 O
   0.4203638510511615    0.9796982179081420    0.3731658354753901 O
   0.5796361489488385    0.0203017820918580    0.2568481979582952 O
   0.2084982444320749    0.2092894183278795    0.3052740438065057 O
   0.7915017555679251    0.7907105816721134    0.3247399896271796 O
   0.2915017555679251    0.7092894183278796    0.3052740438065057 O
   0.7084982444320749    0.2907105816721134    0.3247399896271796 O
