Ca8 Ti6 O20
1.0
   5.4098260893515198    0.0000000000000000    0.0000000000000003
  -0.0000000000000003    5.5167059241281757    0.0000000000000003
   0.0000000000000000    0.0000000000000000   27.1022602583955532
Ca Ti O
8 6 20
direct
   0.5095964104711976    0.5446712302292928    0.1716417428521214 Ca
   0.4904035895288024    0.4553287697707075    0.0295732705910357 Ca
   0.9904035895288024    0.0446712302292926    0.1716417428521214 Ca
   0.0095964104711976    0.9553287697707074    0.0295732705910357 Ca
   0.5095964104711976    0.5446712302292928    0.4557786873742926 Ca
   0.4904035895288024    0.4553287697707075    0.3137102151132070 Ca
   0.9904035895288024    0.0446712302292926    0.4557786873742926 Ca
   0.0095964104711976    0.9553287697707074    0.3137102151132070 Ca
  -0.0000000000000000    0.5000000000000000    0.1006075067215785 Ti
  -0.0000000000000000    0.5000000000000000    0.2426759789826642 Ti
   0.5000000000000000    0.0000000000000000    0.1006075067215785 Ti
   0.5000000000000000    0.0000000000000000    0.2426759789826642 Ti
  -0.0000000000000000    0.5000000000000000    0.3847444512437498 Ti
   0.5000000000000000    0.0000000000000000    0.3847444512437498 Ti
   0.0796361489488385    0.4796982179081420    0.1716417428521214 O
   0.9203638510511615    0.5203017820918580    0.0295732705910357 O
   0.4203638510511615    0.9796982179081420    0.1716417428521213 O
   0.5796361489488385    0.0203017820918580    0.0295732705910357 O
   0.7915017555679251    0.7907105816721134    0.2307882840341927 O
   0.2084982444320749    0.2092894183278795    0.0887198117731071 O
   0.2084982444320749    0.2092894183278795    0.2545636739311356 O
   0.7915017555679251    0.7907105816721134    0.1124952016700499 O
   0.7084982444320749    0.2907105816721134    0.2307882840341927 O
   0.2915017555679251    0.7092894183278796    0.0887198117731071 O
   0.2915017555679251    0.7092894183278796    0.2545636739311355 O
   0.7084982444320749    0.2907105816721134    0.1124952016700499 O
   0.0796361489488385    0.4796982179081420    0.4557786873742926 O
   0.9203638510511615    0.5203017820918580    0.3137102151132070 O
   0.4203638510511615    0.9796982179081420    0.4557786873742926 O
   0.5796361489488385    0.0203017820918580    0.3137102151132070 O
   0.2084982444320749    0.2092894183278795    0.3728567562952784 O
   0.7915017555679251    0.7907105816721134    0.3966321461922212 O
   0.2915017555679251    0.7092894183278796    0.3728567562952783 O
   0.7084982444320749    0.2907105816721134    0.3966321461922212 O
