Ca6 Ti8 O18
1.0
   5.4098260893515198    0.0000000000000000    0.0000000000000003
  -0.0000000000000003    5.5167059241281757    0.0000000000000003
   0.0000000000000000    0.0000000000000000   31.1022602583955532
Ca Ti O
6 8 18
direct
   0.5095964104711976    0.5446712302292928    0.1805165707177313 Ca
   0.9904035895288024    0.0446712302292926    0.1805165707177313 Ca
   0.5095964104711976    0.5446712302292928    0.4281112263950945 Ca
   0.4904035895288024    0.4553287697707075    0.3043138985564129 Ca
   0.9904035895288024    0.0446712302292926    0.4281112263950945 Ca
   0.0095964104711976    0.9553287697707074    0.3043138985564129 Ca
  -0.0000000000000000    0.5000000000000000    0.1186179067983905 Ti
  -0.0000000000000000    0.5000000000000000    0.2424152346370722 Ti
   0.5000000000000000    0.0000000000000000    0.1186179067983905 Ti
   0.5000000000000000    0.0000000000000000    0.2424152346370722 Ti
  -0.0000000000000000    0.5000000000000000    0.3662125624757536 Ti
  -0.0000000000000000    0.5000000000000000    0.4900098903144353 Ti
   0.5000000000000000    0.0000000000000000    0.3662125624757536 Ti
   0.5000000000000000    0.0000000000000000    0.4900098903144353 Ti
   0.0796361489488385    0.4796982179081420    0.1805165707177313 O
   0.4203638510511615    0.9796982179081420    0.1805165707177313 O
   0.7915017555679251    0.7907105816721134    0.2320563925564899 O
   0.7915017555679251    0.7907105816721134    0.1289767488789727 O
   0.7084982444320749    0.2907105816721134    0.2320563925564899 O
   0.7084982444320749    0.2907105816721134    0.1289767488789727 O
   0.0796361489488385    0.4796982179081420    0.4281112263950945 O
   0.9203638510511615    0.5203017820918580    0.3043138985564129 O
   0.4203638510511615    0.9796982179081420    0.4281112263950945 O
   0.5796361489488385    0.0203017820918580    0.3043138985564129 O
   0.7915017555679251    0.7907105816721134    0.4796510482338531 O
   0.2084982444320749    0.2092894183278795    0.3558537203951715 O
   0.2084982444320749    0.2092894183278795    0.2527740767176543 O
   0.7915017555679251    0.7907105816721134    0.3765714045563359 O
   0.7084982444320749    0.2907105816721134    0.4796510482338531 O
   0.2915017555679251    0.7092894183278796    0.3558537203951715 O
   0.2915017555679251    0.7092894183278796    0.2527740767176543 O
   0.7084982444320749    0.2907105816721134    0.3765714045563359 O
