pymatgen with grid density = 628 / number of atoms
0
Gamma
4 4 1
