Ca6 Ti8 O18
1.0
   5.4098260893515198    0.0000000000000000    0.0000000000000003
  -0.0000000000000003    5.5167059241281757    0.0000000000000003
   0.0000000000000000    0.0000000000000000   27.1022602583955532
Ca Ti O
6 8 18
direct
   0.5095964104711976    0.5446712302292928    0.2071588609173928 Ca
   0.9904035895288024    0.0446712302292926    0.2071588609173928 Ca
   0.5095964104711976    0.5446712302292928    0.4912958054395640 Ca
   0.4904035895288024    0.4553287697707075    0.3492273331784784 Ca
   0.9904035895288024    0.0446712302292926    0.4912958054395640 Ca
   0.0095964104711976    0.9553287697707074    0.3492273331784784 Ca
  -0.0000000000000000    0.5000000000000000    0.1361246247868499 Ti
  -0.0000000000000000    0.5000000000000000    0.2781930970479356 Ti
   0.5000000000000000    0.0000000000000000    0.1361246247868499 Ti
   0.5000000000000000    0.0000000000000000    0.2781930970479356 Ti
  -0.0000000000000000    0.5000000000000000    0.4202615693090211 Ti
  -0.0000000000000000    0.5000000000000000    0.5623300415701069 Ti
   0.5000000000000000    0.0000000000000000    0.4202615693090211 Ti
   0.5000000000000000    0.0000000000000000    0.5623300415701069 Ti
   0.0796361489488385    0.4796982179081420    0.2071588609173928 O
   0.4203638510511615    0.9796982179081420    0.2071588609173927 O
   0.7915017555679251    0.7907105816721134    0.2663054020994641 O
   0.7915017555679251    0.7907105816721134    0.1480123197353214 O
   0.7084982444320749    0.2907105816721134    0.2663054020994642 O
   0.7084982444320749    0.2907105816721134    0.1480123197353214 O
   0.0796361489488385    0.4796982179081420    0.4912958054395641 O
   0.9203638510511615    0.5203017820918580    0.3492273331784784 O
   0.4203638510511615    0.9796982179081420    0.4912958054395640 O
   0.5796361489488385    0.0203017820918580    0.3492273331784784 O
   0.7915017555679251    0.7907105816721134    0.5504423466216355 O
   0.2084982444320749    0.2092894183278795    0.4083738743605498 O
   0.2084982444320749    0.2092894183278795    0.2900807919964070 O
   0.7915017555679251    0.7907105816721134    0.4321492642574926 O
   0.7084982444320749    0.2907105816721134    0.5504423466216355 O
   0.2915017555679251    0.7092894183278796    0.4083738743605498 O
   0.2915017555679251    0.7092894183278796    0.2900807919964070 O
   0.7084982444320749    0.2907105816721134    0.4321492642574926 O
