pymatgen with grid density = 650 / number of atoms
0
Gamma
4 4 1
