Ca6 Ti8 O22
1.0
   5.4098260893515198    0.0000000000000000    0.0000000000000003
  -0.0000000000000003    5.5167059241281757    0.0000000000000003
   0.0000000000000000    0.0000000000000000   24.1954899999999995
Ca Ti O
6 8 22
direct
   0.5095964104711976    0.5446712302292928    0.1922622433347205 Ca
   0.9904035895288024    0.0446712302292926    0.1922622433347205 Ca
   0.5095964104711976    0.5446712302292928    0.5105345089290599 Ca
   0.4904035895288024    0.4553287697707075    0.3513983761318902 Ca
   0.9904035895288024    0.0446712302292926    0.5105345089290599 Ca
   0.0095964104711976    0.9553287697707074    0.3513983761318902 Ca
  -0.0000000000000000    0.5000000000000000    0.1126941769361356 Ti
  -0.0000000000000000    0.5000000000000000    0.2718303097333054 Ti
   0.5000000000000000    0.0000000000000000    0.1126941769361356 Ti
   0.5000000000000000    0.0000000000000000    0.2718303097333054 Ti
  -0.0000000000000000    0.5000000000000000    0.4309664425304751 Ti
  -0.0000000000000000    0.5000000000000000    0.5901025753276449 Ti
   0.5000000000000000    0.0000000000000000    0.4309664425304751 Ti
   0.5000000000000000    0.0000000000000000    0.5901025753276449 Ti
   0.0796361489488385    0.4796982179081420    0.1922622433347205 O
   0.4203638510511615    0.9796982179081420    0.1922622433347205 O
   0.7915017555679251    0.7907105816721134    0.2585144644098221 O
   0.2084982444320749    0.2092894183278795    0.0993783316126524 O
   0.2084982444320749    0.2092894183278795    0.2851461550567886 O
   0.7915017555679251    0.7907105816721134    0.1260100222596189 O
   0.7084982444320749    0.2907105816721134    0.2585144644098221 O
   0.2915017555679251    0.7092894183278796    0.0993783316126524 O
   0.2915017555679251    0.7092894183278796    0.2851461550567886 O
   0.7084982444320749    0.2907105816721134    0.1260100222596189 O
   0.0796361489488385    0.4796982179081420    0.5105345089290599 O
   0.9203638510511615    0.5203017820918580    0.3513983761318902 O
   0.4203638510511615    0.9796982179081420    0.5105345089290598 O
   0.5796361489488385    0.0203017820918580    0.3513983761318902 O
   0.7915017555679251    0.7907105816721134    0.5767867300041615 O
   0.2084982444320749    0.2092894183278795    0.4176505972069918 O
   0.2084982444320749    0.2092894183278795    0.6034184206511281 O
   0.7915017555679251    0.7907105816721134    0.4442822878539583 O
   0.7084982444320749    0.2907105816721134    0.5767867300041615 O
   0.2915017555679251    0.7092894183278796    0.4176505972069918 O
   0.2915017555679251    0.7092894183278796    0.6034184206511281 O
   0.7084982444320749    0.2907105816721134    0.4442822878539583 O
