Ca6 Ti8 O22
1.0
   5.4098260893515198    0.0000000000000000    0.0000000000000003
  -0.0000000000000003    5.5167059241281757    0.0000000000000003
   0.0000000000000000    0.0000000000000000   32.1954899999999995
Ca Ti O
6 8 22
direct
   0.5095964104711976    0.5446712302292928    0.1444885350706822 Ca
   0.9904035895288024    0.0446712302292926    0.1444885350706822 Ca
   0.5095964104711976    0.5446712302292928    0.3836758690564418 Ca
   0.4904035895288024    0.4553287697707075    0.2640822020635620 Ca
   0.9904035895288024    0.0446712302292926    0.3836758690564418 Ca
   0.0095964104711976    0.9553287697707074    0.2640822020635620 Ca
  -0.0000000000000000    0.5000000000000000    0.0846917015742422 Ti
  -0.0000000000000000    0.5000000000000000    0.2042853685671221 Ti
   0.5000000000000000    0.0000000000000000    0.0846917015742422 Ti
   0.5000000000000000    0.0000000000000000    0.2042853685671221 Ti
  -0.0000000000000000    0.5000000000000000    0.3238790355600019 Ti
  -0.0000000000000000    0.5000000000000000    0.4434727025528817 Ti
   0.5000000000000000    0.0000000000000000    0.3238790355600019 Ti
   0.5000000000000000    0.0000000000000000    0.4434727025528817 Ti
   0.0796361489488385    0.4796982179081420    0.1444885350706822 O
   0.4203638510511615    0.9796982179081420    0.1444885350706822 O
   0.7915017555679251    0.7907105816721134    0.1942782712262868 O
   0.2084982444320749    0.2092894183278795    0.0746846042334070 O
   0.2084982444320749    0.2092894183278795    0.2142924659079573 O
   0.7915017555679251    0.7907105816721134    0.0946987989150774 O
   0.7084982444320749    0.2907105816721134    0.1942782712262869 O
   0.2915017555679251    0.7092894183278796    0.0746846042334070 O
   0.2915017555679251    0.7092894183278796    0.2142924659079573 O
   0.7084982444320749    0.2907105816721134    0.0946987989150775 O
   0.0796361489488385    0.4796982179081420    0.3836758690564418 O
   0.9203638510511615    0.5203017820918580    0.2640822020635620 O
   0.4203638510511615    0.9796982179081420    0.3836758690564417 O
   0.5796361489488385    0.0203017820918580    0.2640822020635620 O
   0.7915017555679251    0.7907105816721134    0.4334656052120465 O
   0.2084982444320749    0.2092894183278795    0.3138719382191666 O
   0.2084982444320749    0.2092894183278795    0.4534797998937169 O
   0.7915017555679251    0.7907105816721134    0.3338861329008371 O
   0.7084982444320749    0.2907105816721134    0.4334656052120465 O
   0.2915017555679251    0.7092894183278796    0.3138719382191666 O
   0.2915017555679251    0.7092894183278796    0.4534797998937169 O
   0.7084982444320749    0.2907105816721134    0.3338861329008371 O
