pymatgen with grid density = 720 / number of atoms
0
Gamma
4 4 1
