Ca8 Ti6 O20
1.0
   5.4098260893515198    0.0000000000000000    0.0000000000000003
  -0.0000000000000003    5.5167059241281757    0.0000000000000003
   0.0000000000000000    0.0000000000000000   25.1022602583955532
Ca Ti O
8 6 20
direct
   0.5095964104711976    0.5446712302292928    0.1853171442769564 Ca
   0.4904035895288024    0.4553287697707075    0.0319294943164386 Ca
   0.9904035895288024    0.0446712302292926    0.1853171442769564 Ca
   0.0095964104711976    0.9553287697707074    0.0319294943164386 Ca
   0.5095964104711976    0.5446712302292928    0.4920924441979918 Ca
   0.4904035895288024    0.4553287697707075    0.3387047942374741 Ca
   0.9904035895288024    0.0446712302292926    0.4920924441979918 Ca
   0.0095964104711976    0.9553287697707074    0.3387047942374741 Ca
  -0.0000000000000000    0.5000000000000000    0.1086233192966975 Ti
  -0.0000000000000000    0.5000000000000000    0.2620109692572152 Ti
   0.5000000000000000    0.0000000000000000    0.1086233192966975 Ti
   0.5000000000000000    0.0000000000000000    0.2620109692572152 Ti
  -0.0000000000000000    0.5000000000000000    0.4153986192177329 Ti
   0.5000000000000000    0.0000000000000000    0.4153986192177329 Ti
   0.0796361489488385    0.4796982179081420    0.1853171442769564 O
   0.9203638510511615    0.5203017820918580    0.0319294943164386 O
   0.4203638510511615    0.9796982179081420    0.1853171442769564 O
   0.5796361489488385    0.0203017820918580    0.0319294943164386 O
   0.7915017555679251    0.7907105816721134    0.2491761329098336 O
   0.2084982444320749    0.2092894183278795    0.0957884829493160 O
   0.2084982444320749    0.2092894183278795    0.2748458056045968 O
   0.7915017555679251    0.7907105816721134    0.1214581556440790 O
   0.7084982444320749    0.2907105816721134    0.2491761329098337 O
   0.2915017555679251    0.7092894183278796    0.0957884829493160 O
   0.2915017555679251    0.7092894183278796    0.2748458056045968 O
   0.7084982444320749    0.2907105816721134    0.1214581556440791 O
   0.0796361489488385    0.4796982179081420    0.4920924441979918 O
   0.9203638510511615    0.5203017820918580    0.3387047942374741 O
   0.4203638510511615    0.9796982179081420    0.4920924441979918 O
   0.5796361489488385    0.0203017820918580    0.3387047942374741 O
   0.2084982444320749    0.2092894183278795    0.4025637828703514 O
   0.7915017555679251    0.7907105816721134    0.4282334555651145 O
   0.2915017555679251    0.7092894183278796    0.4025637828703513 O
   0.7084982444320749    0.2907105816721134    0.4282334555651145 O
