Ca6 Ti8 O18
1.0
   5.4098260893515198    0.0000000000000000    0.0000000000000003
  -0.0000000000000003    5.5167059241281757    0.0000000000000003
   0.0000000000000000    0.0000000000000000   35.1022602583955532
Ca Ti O
6 8 18
direct
   0.5095964104711976    0.5446712302292928    0.1599462063720842 Ca
   0.9904035895288024    0.0446712302292926    0.1599462063720842 Ca
   0.5095964104711976    0.5446712302292928    0.3793267637144954 Ca
   0.4904035895288024    0.4553287697707075    0.2696364850432897 Ca
   0.9904035895288024    0.0446712302292926    0.3793267637144954 Ca
   0.0095964104711976    0.9553287697707074    0.2696364850432897 Ca
  -0.0000000000000000    0.5000000000000000    0.1051010670364814 Ti
  -0.0000000000000000    0.5000000000000000    0.2147913457076870 Ti
   0.5000000000000000    0.0000000000000000    0.1051010670364814 Ti
   0.5000000000000000    0.0000000000000000    0.2147913457076870 Ti
  -0.0000000000000000    0.5000000000000000    0.3244816243788925 Ti
  -0.0000000000000000    0.5000000000000000    0.4341719030500981 Ti
   0.5000000000000000    0.0000000000000000    0.3244816243788925 Ti
   0.5000000000000000    0.0000000000000000    0.4341719030500981 Ti
   0.0796361489488385    0.4796982179081420    0.1599462063720842 O
   0.4203638510511615    0.9796982179081420    0.1599462063720842 O
   0.7915017555679251    0.7907105816721134    0.2056129224382387 O
   0.7915017555679251    0.7907105816721134    0.1142794903059297 O
   0.7084982444320749    0.2907105816721134    0.2056129224382388 O
   0.7084982444320749    0.2907105816721134    0.1142794903059297 O
   0.0796361489488385    0.4796982179081420    0.3793267637144954 O
   0.9203638510511615    0.5203017820918580    0.2696364850432897 O
   0.4203638510511615    0.9796982179081420    0.3793267637144953 O
   0.5796361489488385    0.0203017820918580    0.2696364850432897 O
   0.7915017555679251    0.7907105816721134    0.4249934797806498 O
   0.2084982444320749    0.2092894183278795    0.3153032011094443 O
   0.2084982444320749    0.2092894183278795    0.2239697689771352 O
   0.7915017555679251    0.7907105816721134    0.3336600476483408 O
   0.7084982444320749    0.2907105816721134    0.4249934797806499 O
   0.2915017555679251    0.7092894183278796    0.3153032011094443 O
   0.2915017555679251    0.7092894183278796    0.2239697689771352 O
   0.7084982444320749    0.2907105816721134    0.3336600476483408 O
