pymatgen with grid density = 621 / number of atoms
0
Gamma
4 4 1
