Ca8 Ti6 O20
1.0
   5.4098260893515198    0.0000000000000000    0.0000000000000003
  -0.0000000000000003    5.5167059241281757    0.0000000000000003
   0.0000000000000000    0.0000000000000000   29.1022602583955532
Ca Ti O
8 6 20
direct
   0.5095964104711976    0.5446712302292928    0.1598459756967091 Ca
   0.4904035895288024    0.4553287697707075    0.0275409012610621 Ca
   0.9904035895288024    0.0446712302292926    0.1598459756967091 Ca
   0.0095964104711976    0.9553287697707074    0.0275409012610621 Ca
   0.5095964104711976    0.5446712302292928    0.4244561245680029 Ca
   0.4904035895288024    0.4553287697707075    0.2921510501323560 Ca
   0.9904035895288024    0.0446712302292926    0.4244561245680029 Ca
   0.0095964104711976    0.9553287697707074    0.2921510501323559 Ca
  -0.0000000000000000    0.5000000000000000    0.0936934384788856 Ti
  -0.0000000000000000    0.5000000000000000    0.2259985129145325 Ti
   0.5000000000000000    0.0000000000000000    0.0936934384788856 Ti
   0.5000000000000000    0.0000000000000000    0.2259985129145325 Ti
  -0.0000000000000000    0.5000000000000000    0.3583035873501794 Ti
   0.5000000000000000    0.0000000000000000    0.3583035873501794 Ti
   0.0796361489488385    0.4796982179081420    0.1598459756967091 O
   0.9203638510511615    0.5203017820918580    0.0275409012610621 O
   0.4203638510511615    0.9796982179081420    0.1598459756967091 O
   0.5796361489488385    0.0203017820918580    0.0275409012610621 O
   0.7915017555679251    0.7907105816721134    0.2149277782188333 O
   0.2084982444320749    0.2092894183278795    0.0826227037831864 O
   0.2084982444320749    0.2092894183278795    0.2370692476102317 O
   0.7915017555679251    0.7907105816721134    0.1047641731745847 O
   0.7084982444320749    0.2907105816721134    0.2149277782188333 O
   0.2915017555679251    0.7092894183278796    0.0826227037831864 O
   0.2915017555679251    0.7092894183278796    0.2370692476102316 O
   0.7084982444320749    0.2907105816721134    0.1047641731745847 O
   0.0796361489488385    0.4796982179081420    0.4244561245680029 O
   0.9203638510511615    0.5203017820918580    0.2921510501323559 O
   0.4203638510511615    0.9796982179081420    0.4244561245680027 O
   0.5796361489488385    0.0203017820918580    0.2921510501323560 O
   0.2084982444320749    0.2092894183278795    0.3472328526544802 O
   0.7915017555679251    0.7907105816721134    0.3693743220458786 O
   0.2915017555679251    0.7092894183278796    0.3472328526544802 O
   0.7084982444320749    0.2907105816721134    0.3693743220458786 O
