Ca6 Ti8 O18
1.0
   5.4098260893515198    0.0000000000000000    0.0000000000000003
  -0.0000000000000003    5.5167059241281757    0.0000000000000003
   0.0000000000000000    0.0000000000000000   33.1022602583955532
Ca Ti O
6 8 18
direct
   0.5095964104711976    0.5446712302292928    0.1696099698204740 Ca
   0.9904035895288024    0.0446712302292926    0.1696099698204740 Ca
   0.5095964104711976    0.5446712302292928    0.4022452448546639 Ca
   0.4904035895288024    0.4553287697707075    0.2859276073375689 Ca
   0.9904035895288024    0.0446712302292926    0.4022452448546639 Ca
   0.0095964104711976    0.9553287697707074    0.2859276073375689 Ca
  -0.0000000000000000    0.5000000000000000    0.1114511510619265 Ti
  -0.0000000000000000    0.5000000000000000    0.2277687885790215 Ti
   0.5000000000000000    0.0000000000000000    0.1114511510619265 Ti
   0.5000000000000000    0.0000000000000000    0.2277687885790215 Ti
  -0.0000000000000000    0.5000000000000000    0.3440864260961163 Ti
  -0.0000000000000000    0.5000000000000000    0.4604040636132114 Ti
   0.5000000000000000    0.0000000000000000    0.3440864260961163 Ti
   0.5000000000000000    0.0000000000000000    0.4604040636132114 Ti
   0.0796361489488385    0.4796982179081420    0.1696099698204740 O
   0.4203638510511615    0.9796982179081420    0.1696099698204740 O
   0.7915017555679251    0.7907105816721134    0.2180358156686845 O
   0.7915017555679251    0.7907105816721134    0.1211841239722634 O
   0.7084982444320749    0.2907105816721134    0.2180358156686845 O
   0.7084982444320749    0.2907105816721134    0.1211841239722634 O
   0.0796361489488385    0.4796982179081420    0.4022452448546639 O
   0.9203638510511615    0.5203017820918580    0.2859276073375689 O
   0.4203638510511615    0.9796982179081420    0.4022452448546639 O
   0.5796361489488385    0.0203017820918580    0.2859276073375689 O
   0.7915017555679251    0.7907105816721134    0.4506710907028745 O
   0.2084982444320749    0.2092894183278795    0.3343534531857795 O
   0.2084982444320749    0.2092894183278795    0.2375017614893584 O
   0.7915017555679251    0.7907105816721134    0.3538193990064534 O
   0.7084982444320749    0.2907105816721134    0.4506710907028745 O
   0.2915017555679251    0.7092894183278796    0.3343534531857795 O
   0.2915017555679251    0.7092894183278796    0.2375017614893584 O
   0.7084982444320749    0.2907105816721134    0.3538193990064533 O
