pymatgen with grid density = 595 / number of atoms
0
Gamma
4 4 1
