Ca4 Ti4 O12                             
   1.00000000000000     
     5.4189579669213632   -0.0000000000000000    0.0000000000000003
    -0.0000000000000003    5.5108833103233650    0.0000000000000003
     0.0000000000000000    0.0000000000000000    7.7056242995019169
   Ca   Ti   O 
     4     4    12
Direct
  0.5090147406552419  0.5423733303008682  0.7500000000000000
  0.4909852593447581  0.4576266696991318  0.2500000000000000
  0.9909852593447581  0.0423733303008681  0.7500000000000000
  0.0090147406552420  0.9576266696991318  0.2500000000000000
 -0.0000000000000000  0.5000000000000000  0.5000000000000000
  0.0000000000000000  0.5000000000000000 -0.0000000000000000
  0.5000000000000000 -0.0000000000000000  0.5000000000000000
  0.5000000000000000  0.0000000000000000 -0.0000000000000000
  0.0773074747468549  0.4812312023026809  0.7500000000000000
  0.9226925252531450  0.5187687976973192  0.2500000000000000
  0.4226925252531451  0.9812312023026808  0.7500000000000000
  0.5773074747468550  0.0187687976973191  0.2500000000000000
  0.7905901617939408  0.7898782958087834  0.9595459912958947
  0.2094098382060593  0.2101217041912095  0.4595459912958946
  0.2094098382060593  0.2101217041912095  0.0404540087041055
  0.7905901617939408  0.7898782958087834  0.5404540087041053
  0.7094098382060592  0.2898782958087833  0.9595459912958947
  0.2905901617939406  0.7101217041912095  0.4595459912958946
  0.2905901617939406  0.7101217041912095  0.0404540087041055
  0.7094098382060592  0.2898782958087833  0.5404540087041053
 
  0.00000000E+00  0.00000000E+00  0.00000000E+00
  0.00000000E+00  0.00000000E+00  0.00000000E+00
  0.00000000E+00  0.00000000E+00  0.00000000E+00
  0.00000000E+00  0.00000000E+00  0.00000000E+00
  0.00000000E+00  0.00000000E+00  0.00000000E+00
  0.00000000E+00  0.00000000E+00  0.00000000E+00
  0.00000000E+00  0.00000000E+00  0.00000000E+00
  0.00000000E+00  0.00000000E+00  0.00000000E+00
  0.00000000E+00  0.00000000E+00  0.00000000E+00
  0.00000000E+00  0.00000000E+00  0.00000000E+00
  0.00000000E+00  0.00000000E+00  0.00000000E+00
  0.00000000E+00  0.00000000E+00  0.00000000E+00
  0.00000000E+00  0.00000000E+00  0.00000000E+00
  0.00000000E+00  0.00000000E+00  0.00000000E+00
  0.00000000E+00  0.00000000E+00  0.00000000E+00
  0.00000000E+00  0.00000000E+00  0.00000000E+00
  0.00000000E+00  0.00000000E+00  0.00000000E+00
  0.00000000E+00  0.00000000E+00  0.00000000E+00
  0.00000000E+00  0.00000000E+00  0.00000000E+00
  0.00000000E+00  0.00000000E+00  0.00000000E+00
