Ca8 Ti6 O20
1.0
   5.4098260893515198    0.0000000000000000    0.0000000000000003
  -0.0000000000000003    5.5167059241281757    0.0000000000000003
   0.0000000000000000    0.0000000000000000   31.1022602583955532
Ca Ti O
8 6 20
direct
   0.5095964104711976    0.5446712302292928    0.1495672387580609 Ca
   0.4904035895288024    0.4553287697707075    0.0257699109193793 Ca
   0.9904035895288024    0.0446712302292926    0.1495672387580609 Ca
   0.0095964104711976    0.9553287697707074    0.0257699109193793 Ca
   0.5095964104711976    0.5446712302292928    0.3971618944354241 Ca
   0.4904035895288024    0.4553287697707075    0.2733645665967425 Ca
   0.9904035895288024    0.0446712302292926    0.3971618944354241 Ca
   0.0095964104711976    0.9553287697707074    0.2733645665967425 Ca
  -0.0000000000000000    0.5000000000000000    0.0876685748387201 Ti
  -0.0000000000000000    0.5000000000000000    0.2114659026774017 Ti
   0.5000000000000000    0.0000000000000000    0.0876685748387201 Ti
   0.5000000000000000    0.0000000000000000    0.2114659026774017 Ti
  -0.0000000000000000    0.5000000000000000    0.3352632305160833 Ti
   0.5000000000000000    0.0000000000000000    0.3352632305160833 Ti
   0.0796361489488385    0.4796982179081420    0.1495672387580609 O
   0.9203638510511615    0.5203017820918580    0.0257699109193793 O
   0.4203638510511615    0.9796982179081420    0.1495672387580609 O
   0.5796361489488385    0.0203017820918580    0.0257699109193793 O
   0.7915017555679251    0.7907105816721134    0.2011070605968195 O
   0.2084982444320749    0.2092894183278795    0.0773097327581379 O
   0.2084982444320749    0.2092894183278795    0.2218247447579839 O
   0.7915017555679251    0.7907105816721134    0.0980274169193023 O
   0.7084982444320749    0.2907105816721134    0.2011070605968195 O
   0.2915017555679251    0.7092894183278796    0.0773097327581379 O
   0.2915017555679251    0.7092894183278796    0.2218247447579839 O
   0.7084982444320749    0.2907105816721134    0.0980274169193023 O
   0.0796361489488385    0.4796982179081420    0.3971618944354241 O
   0.9203638510511615    0.5203017820918580    0.2733645665967425 O
   0.4203638510511615    0.9796982179081420    0.3971618944354240 O
   0.5796361489488385    0.0203017820918580    0.2733645665967425 O
   0.2084982444320749    0.2092894183278795    0.3249043884355011 O
   0.7915017555679251    0.7907105816721134    0.3456220725966655 O
   0.2915017555679251    0.7092894183278796    0.3249043884355011 O
   0.7084982444320749    0.2907105816721134    0.3456220725966655 O
